NAME : tsp_174_sol.txt
COMMENT : OR-Tools Guided Local Search
TYPE : TOUR
DIMENSION : 180
COST : 10275
STATUS : ROUTING_SUCCESS
GAP : 0.00% (Reference Solution)
TOUR_SECTION
1
153
25
7
31
44
36
43
179
113
95
38
2
37
80
47
109
162
126
70
104
173
26
96
6
13
176
174
119
71
55
51
106
101
17
180
175
64
81
34
133
19
57
68
20
177
103
41
28
89
33
49
3
76
62
142
122
118
166
29
157
105
161
60
120
90
12
45
111
9
50
66
170
140
46
107
116
23
149
63
40
114
102
108
164
16
11
65
112
141
156
155
87
115
139
77
99
42
171
145
167
93
129
127
85
178
22
110
152
147
124
78
4
32
135
35
159
94
56
59
136
74
150
163
97
98
54
58
125
39
138
92
158
67
27
151
53
168
15
75
91
169
137
5
88
48
83
146
73
61
172
52
18
30
82
86
121
165
79
123
21
8
128
72
130
132
117
100
154
84
10
144
24
143
134
148
14
160
69
131
-1
